minizinc/sudoku_problems2/sudoku_p69.dzn
%
% sudoku_p69.dzn
% See http://www.hakank.org/minizinc/sudoku_gcc.mzn
% 
% This problem is problem 69 from
% Gecode's sudoku.cpp
% http://www.gecode.org/gecode-doc-latest/sudoku_8cpp-source.html
% 
x = array2d(1..n, 1..n, [   
% http://janko.at/Raetsel/Sudoku/516.a.htm
% 69
  _,  _,  _, 14,  9,  _,  5,  _,  _,  6,  _, 16,  _,  _,  _, 15,
  _,  6,  _,  4,  _,  3,  _, 16,  _,  _,  _,  7,  _,  1,  _, 11,
  _,  3,  7, 10,  _, 14,  _,  _,  4,  9,  _,  5, 12,  _,  _,  _,
  9,  _,  _,  _,  _, 12,  7,  6,  _,  3,  2, 14,  _,  5,  4,  8,
  _, 14,  _,  _,  _,  4,  _,  _, 13, 16,  9,  _,  2,  _,  _,  _,
  _,  4,  _,  _,  _,  5,  6,  2, 12,  _,  _,  _, 16,  8,  _,  _,
  _, 16,  9,  3,  _,  _,  1, 11,  5, 15,  _,  2,  _, 12,  _,  7,
 12,  1,  _,  6,  3,  9,  _, 10,  _,  _,  _,  _,  _,  _,  _,  5,
 13,  _,  _,  _,  _,  _,  _,  _,  2,  _,  4,  9,  6,  _,  8, 16,
  6,  _,  3,  _, 15,  _,  9, 14, 16,  5,  _,  _, 11,  2, 12,  _,
  _,  _, 10, 11,  _,  _,  _,  8,  6, 14, 12,  _,  _,  _,  3,  _,
  _,  _,  _,  9,  _,  2, 12,  1,  _,  _, 11,  _,  _,  _, 13,  _,
  7, 10,  1,  _,  4,  6,  2,  _,  3, 11,  5,  _,  _,  _,  _, 13,
  _,  _,  _, 13,  5,  _,  8,  9,  _,  _, 16,  _,  1, 11, 10,  _,
 14,  _,  5,  _, 16,  _,  _,  _,  9,  _,  6,  _, 15,  _,  2,  _,
  4,  _,  _,  _, 11,  _, 14,  _,  _, 13,  _,  8,  7,  _,  _,  _
]);

n = 16;


